p cnf 20 20
-7 -14 2 0
19 -17 12 0
-14 3 11 0
-17 15 -18 0
11 16 -10 0
-3 -18 10 0
9 -16 -14 0
17 1 2 0
-8 17 -7 0
16 -12 13 0
3 20 19 0
-9 -13 -7 0
-20 9 -14 0
4 -14 -17 0
11 -4 -7 0
-12 -17 13 0
18 10 5 0
10 -19 7 0
3 7 -12 0
1 15 -10 0
